10 10 3

0 396 434 314 405 144 225 198 351 355 
415 0 253 80 141 225 347 208 137 104 
270 235 0 66 302 389 460 292 217 304 
282 104 251 0 150 450 184 170 111 485 
345 466 335 406 0 380 294 192 228 469 
246 386 312 300 363 0 497 73 164 385 
239 407 308 249 395 363 0 450 252 68 
133 128 129 325 424 95 159 0 85 181 
160 435 359 335 180 245 147 186 0 314 
143 209 428 479 154 90 286 354 192 0 

375.87 0 2
375.87 1 8
375.87 2 3
375.87 3 8
375.87 4 0
375.87 5 7
375.87 6 7
375.87 7 8
375.87 8 0
375.87 9 6

